
;this file is automatically generated: Wed Feb 26 14:38:42 CST 2020

;declarations generated

(declare-fun obj_a7754b06_5918_4c7d_99b1_6898253c555f ( Int) Int)
(declare-fun oclExcludes ( Int Int) Bool)
(declare-fun type_5f600d87_82c4_4813_a516_fb9fa8ed6c87_Class15 ( Int) Bool)
(declare-fun Cardinality ( Int) Int)
(declare-fun class15_Class15IntAttr2 ( Int) Int)
(declare-fun class15_Class15IntAttr4 ( Int) Int)
(declare-fun oclSelect ( Int Bool) Int)
(declare-fun Enum0 ( Int) Int)
(declare-fun Enum1 ( Int) Int)
(declare-fun container_ ( Int) Int)
(declare-fun oclIncludes ( Int Int) Bool)
(declare-fun ObjAt ( Int Int) Int)

;formula(s) generated
(assert (! (forall ((c5_2 Int)(c5_1 Int)) (=> (and ( type_5f600d87_82c4_4813_a516_fb9fa8ed6c87_Class15 c5_1 )  ( type_5f600d87_82c4_4813_a516_fb9fa8ed6c87_Class15 c5_2 ) ) (= ( class15_Class15IntAttr4 ( obj_a7754b06_5918_4c7d_99b1_6898253c555f c5_1 )  )  ( class15_Class15IntAttr2 ( obj_a7754b06_5918_4c7d_99b1_6898253c555f c5_2 )  ) ))):named l0))
(assert (exists ((o Int)) ( type_5f600d87_82c4_4813_a516_fb9fa8ed6c87_Class15 ( obj_a7754b06_5918_4c7d_99b1_6898253c555f o )  ) ))

 ;end of formula 